
Gurobi 6.0.4 (win64) logging started 06/14/15 17:06:03

Read LP format model from file C:\MT\repository\VRPTWMS\instances\mip\freight\N6-C_DV10-C_SV50_F14_2_No_1.lp
Reading time = 0.01 seconds
(null): 217 rows, 141 columns, 849 nonzeros
Optimize a model with 217 rows, 141 columns and 849 nonzeros
Model has 294 quadratic constraints
WARNING: Only barrier available for SOCP models
Coefficient statistics:
  Matrix range    [1e+00, 1e+02]
  Objective range [3e+00, 1e+03]
  Bounds range    [1e+00, 1e+02]
  RHS range       [1e+00, 1e+02]
Presolve removed 40 rows and 19 columns
Presolve time: 0.03s
Presolved: 848 rows, 475 columns, 3682 nonzeros
Variable types: 317 continuous, 158 integer (119 binary)
Found heuristic solution: objective 6277.6800000
Optimize a model with 848 rows, 475 columns and 3682 nonzeros
Coefficient statistics:
  Matrix range    [8e-01, 1e+02]
  Objective range [3e+00, 1e+03]
  Bounds range    [1e+00, 1e+02]
  RHS range       [1e+00, 1e+02]
Presolve removed 32 rows and 19 columns
Presolved: 816 rows, 456 columns, 3528 nonzeros


Root relaxation: objective 1.137327e+03, 72 iterations, 0.00 seconds

    Nodes    |    Current Node    |     Objective Bounds      |     Work
 Expl Unexpl |  Obj  Depth IntInf | Incumbent    BestBd   Gap | It/Node Time

     0     0 1137.32658    0   43 6277.68000 1137.32658  81.9%     -    0s
H    0     0                    4197.7300000 1137.32658  72.9%     -    0s
     0     0 1153.76003    0   75 4197.73000 1153.76003  72.5%     -    0s
     0     0 1156.81781    0   34 4197.73000 1156.81781  72.4%     -    0s
     0     0 1158.88546    0   81 4197.73000 1158.88546  72.4%     -    0s
H    0     0                    3195.9300000 1158.88546  63.7%     -    0s
     0     0 1158.96504    0   66 3195.93000 1158.96504  63.7%     -    0s
     0     0 1158.96504    0   67 3195.93000 1158.96504  63.7%     -    0s
     0     0 1158.96504    0   56 3195.93000 1158.96504  63.7%     -    0s
     0     2 1158.96504    0   56 3195.93000 1158.96504  63.7%     -    0s
H  935   135                    3195.3100000 2161.80689  32.3%  25.0    0s
*  961   133              17    3191.5600000 2163.77000  32.2%  25.2    0s
H  997   145                    3189.7700000 2171.50667  31.9%  25.1    0s

Cutting planes:
  Gomory: 1
  Cover: 92
  Implied bound: 156
  Clique: 31
  MIR: 31
  Flow cover: 6
  GUB cover: 4
  Zero half: 2

Explored 2637 nodes (67339 simplex iterations) in 1.60 seconds
Thread count was 2 (of 4 available processors)

Optimal solution found (tolerance 1.00e-04)
Best objective 3.189770000000e+03, best bound 3.189770000000e+03, gap 0.0%
k_c1	1.0
k_c2	10.0
k_c3	10.0
k_c4	7.0
k_c5	-0.0
k_c6	4.0
k_dN	0.0
kDash_c1	6.0
kDash_c2	6.0
kDash_c3	7.0
kDash_c4	-0.0
kDash_c5	4.0
kDash_c6	1.0
o_1	1.0
o_2	0.0
o_3	0.0
o_4	0.0
o_5	1.0
o_6	0.0
p_1	1.0
p_2	-0.0
p_3	0.0
p_4	0.0
p_5	1.0
p_6	-0.0
phi_c1	2.0
phi_c2	11.0
phi_c3	12.0
phi_c4	11.0
phi_c5	4.0
phi_c6	3.0
phi_d0	14.0
phi_dN	-0.0
pi_c1	25.0
pi_c2	25.0
pi_c3	25.0
pi_c4	25.0
pi_c5	35.0
pi_c6	33.0
pi_dN	0.0
tauD_c1	67.0
tauD_c2	25.0
tauD_c3	10.0
tauD_c4	25.0
tauD_c5	42.0
tauD_c6	60.0
tauD_d0	-0.0
tauD_dN	100.0
tauS_c1	55.0
tauS_c2	83.0
tauS_c3	86.0
tauS_c4	85.0
tauS_c5	42.0
tauS_c6	86.0
tauS_d0	-0.0
tauS_dN	91.0
x_c1_dN	1.0
x_c2_dN	1.0
x_c3_c4	1.0
x_c4_c5	1.0
x_c5_c6	1.0
x_c6_c1	1.0
x_d0_c2	1.0
x_d0_c3	1.0
z_c1_dN	1.0
z_c5_c1	1.0
z_d0_c5	1.0
